NAME: a280
COMMENT: Tabu Search - tabusSize: 0.3 - neighborSize: 3
DIMENSION: 280
DISTANCE: 2718.0
EXECUTION_TIME: 601.079
TOUR_SECTION: 
252 209 210 207 208 206 205 204 203 213 212 211 214 215 216 217 218 219 220 221 222 223 224 225 226 227 228 229 230 251 250 249 248 247 244 245 246 231 232 233 234 235 236 237 238 239 240 241 243 242 2 1 280 3 279 278 277 4 5 6 7 8 9 10 11 12 13 14 24 23 25 22 26 27 28 29 30 31 32 33 34 35 36 37 38 39 40 41 42 43 60 61 59 44 45 46 47 48 49 50 51 52 53 54 55 56 57 58 68 69 67 70 71 72 73 66 65 64 63 62 118 117 115 116 86 85 84 83 82 81 89 112 88 87 113 114 111 110 108 109 90 91 80 79 76 74 75 77 78 95 96 97 94 98 93 92 99 100 101 169 102 103 104 105 106 107 174 173 171 172 170 168 167 166 165 164 163 162 184 183 182 161 175 160 159 158 157 119 120 121 122 123 124 125 126 127 128 21 20 19 18 17 133 132 131 130 129 154 155 153 156 152 151 177 176 181 180 179 178 150 149 148 147 146 145 199 198 197 193 186 185 187 188 189 190 191 192 194 195 196 201 202 200 144 143 142 141 140 139 138 137 136 135 134 270 269 268 267 266 265 264 263 262 261 272 271 16 15 273 274 275 276 260 259 258 257 256 255 254 253 
EOF